12
0 83 50 5 92 26 94 73 23 83 57 28 
12 0 100 7 53 88 88 97 6 85 24 47 
87 18 0 63 94 50 22 9 24 73 62 99 
26 6 49 0 95 79 91 37 49 93 25 79 
48 85 21 52 0 58 44 31 33 77 6 10 
34 14 88 60 39 0 62 98 2 22 71 44 
50 13 91 86 87 13 0 28 22 88 14 74 
40 28 13 50 23 43 40 0 65 33 71 14 
80 95 53 89 12 65 52 90 0 71 8 46 
7 30 77 57 94 33 12 98 99 0 40 89 
85 1 88 2 62 83 46 36 38 25 0 62 
3 37 93 31 99 36 94 64 36 43 77 0 
